0 0 0 0 0 0 0 0 0 0 0 0 0 0 0 0 0 0 0 0 0 0 0 0 0 64 64 64 64 64 64 64 64 64 64 
0 0 0 0 0 0 0 0 0 0 0 0 0 0 0 0 0 0 0 0 0 85 85 85 85 85 85 85 85 85 85 85 85 85 85 
0 0 0 116 52 52 52 52 52 52 52 52 52 52 52 52 52 52 52 52 52 85 85 85 85 137 137 137 137 137 137 137 137 137 137 
0 0 0 116 52 52 52 52 52 52 52 52 52 52 52 52 52 184 99 99 99 215 151 151 151 151 151 151 151 151 151 151 151 151 151 
0 0 0 116 52 52 52 52 52 52 52 52 176 52 52 52 155 184 99 99 99 215 151 151 151 151 151 151 151 151 223 151 151 151 254 
0 0 0 116 52 52 52 52 205 54 54 54 176 106 106 106 155 184 106 106 106 230 151 151 151 209 238 153 153 153 269 205 205 205 254 
23 151
20 106
20 106
26 209
572
